Ampl/VRP.dat

param n := 8; 
param K := 10; 
param B := 150; 
param d := 50, 50, 50, 150, 50, 50, 50; 
param c : 1 2 3 4 5 6 7 8:= 


1 .  4.5 6.5 7.5  10  13  10  10 
2 4.5 .  1.9  3   2.7 14  12  12 
3 13  5   .  1.1  3.5 16  13  13 
4 12  4.5 4.5 .   2.4 14  12  12 
5 13  6.5 5   6    .  16  13  13 
6 8.5 16  15  16  19  .   2.6  9 
7 6   14  13  14  16  2.6  .   1 
8 5.5 13  12  13  15  3.5  8   .; 