Ampl/VRP.txt
Z = 64.6

x [*,*]
:   1   2   3   4   5   6   7   8    :=
1   .   1   0   0   1   0   0   1
2   0   .   1   0   0   0   0   0
3   0   0   .   1   0   0   0   0
4   1   0   0   .   0   0   0   0
5   1   0   0   0   .   0   0   0
6   0   0   0   0   0   .   1   0
7   1   0   0   0   0   0   .   0
8   0   0   0   0   0   1   0   .
;

u [*] :=
1    0
2  150
3  100
4   50
5  150
6  100
7   50
8  150
;

set A :=
(1,2)   (1,8)   (2,7)   (3,6)   (4,5)   (5,3)   (6,2)   (7,1)   (7,8)   (8,6)
(1,3)   (2,1)   (2,8)   (3,7)   (4,6)   (5,4)   (6,3)   (7,2)   (8,1)   (8,7)
(1,4)   (2,3)   (3,1)   (3,8)   (4,7)   (5,6)   (6,4)   (7,3)   (8,2)
(1,5)   (2,4)   (3,2)   (4,1)   (4,8)   (5,7)   (6,5)   (7,4)   (8,3)
(1,6)   (2,5)   (3,4)   (4,2)   (5,1)   (5,8)   (6,7)   (7,5)   (8,4)
(1,7)   (2,6)   (3,5)   (4,3)   (5,2)   (6,1)   (6,8)   (7,6)   (8,5);

